language Essence 1.3

letting course_load be
        function(1 --> 2, 2 --> 2, 3 --> 7, 4 --> 17, 5 --> 2, 6 --> 2, 7 --> 2, 8 --> 2, 9 --> 2, 10 --> 2, 11 --> 2,
                 12 --> 8, 13 --> 13, 14 --> 17, 15 --> 2, 16 --> 22, 17 --> 2, 18 --> 3, 19 --> 2, 20 --> 2, 21 --> 21,
                 22 --> 2, 23 --> 2, 24 --> 2, 25 --> 2, 26 --> 2, 27 --> 3, 28 --> 2, 29 --> 2, 30 --> 13, 31 --> 4,
                 32 --> 5, 33 --> 9, 34 --> 2, 35 --> 2, 36 --> 2, 37 --> 2, 38 --> 12, 39 --> 8, 40 --> 2, 41 --> 9,
                 42 --> 2, 43 --> 2, 44 --> 2, 45 --> 2, 46 --> 2, 47 --> 2, 48 --> 2)
letting courses_per_period_lb be 9
letting courses_per_period_ub be 46
letting load_per_period_lb be 25
letting load_per_period_ub be 47
letting n_courses be 48
letting n_periods be 5
letting prerequisite be
        relation((22, 11), (22, 12), (22, 14), (23, 11), (23, 13), (24, 10), (24, 12), (24, 14), (25, 12), (25, 13),
                 (26, 11), (28, 11), (28, 12), (29, 10), (29, 14), (30, 11), (30, 12), (31, 11), (32, 12), (32, 13),
                 (33, 12), (35, 12), (35, 14), (37, 13), (37, 14), (38, 10), (38, 12))
$ Visualisation for prerequisite
$ 22 11
$ 22 12
$ 22 14
$ 23 11
$ 23 13
$ 24 10
$ 24 12
$ 24 14
$ 25 12
$ 25 13
$ 26 11
$ 28 11
$ 28 12
$ 29 10
$ 29 14
$ 30 11
$ 30 12
$ 31 11
$ 32 12
$ 32 13
$ 33 12
$ 35 12
$ 35 14
$ 37 13
$ 37 14
$ 38 10
$ 38 12

